CPXPARAM_MIP_Strategy_HeuristicFreq#P37#0#2.876777#0.667673
CPXPARAM_MIP_Strategy_HeuristicFreq#P37#20#2.836396#0.658301
CPXPARAM_MIP_Strategy_HeuristicFreq#P37#40#4.308507#0.999964
CPXPARAM_MIP_Strategy_HeuristicFreq#P37#100#4.308663#1.000000
CPXPARAM_MIP_Strategy_HeuristicFreq#P37#500#4.013165#0.931418
CPXPARAM_MIP_Strategy_HeuristicFreq#P37#1000#4.013118#0.931407
